TOUR_SECTION
1
190
196
49
31
53
117
106
58
35
169
23
14
84
94
170
188
183
9
105
90
60
52
24
129
48
2
201
122
126
7
179
68
25
138
11
194
32
115
132
83
143
192
61
22
51
198
156
160
120
47
86
17
101
181
162
64
67
57
104
40
91
3
125
39
99
42
82
184
177
159
139
46
65
70
151
96
113
8
74
100
195
85
13
134
110
66
79
15
150
140
114
62
186
124
148
109
172
26
174
56
136
121
43
19
168
142
69
187
171
108
118
59
176
175
130
89
191
92
41
180
16
149
178
164
77
185
128
200
45
152
33
76
146
157
107
123
119
37
30
72
137
75
111
131
20
28
127
165
5
161
163
116
38
10
167
199
147
6
193
189
12
44
21
103
141
135
154
145
27
93
197
50
155
4
80
71
34
55
158
29
133
112
95
88
81
173
78
73
153
102
144
18
97
36
182
63
98
166
87
54
-1
EOF